10 6 15 4 14 11 8 17 12 9 19 5 18 13 7 0 1 2 16 3  
10 6 15 4 14 11 8 17 12 9 19 5 18 13 7 1 0 2 16 3  
10 6 15 4 18 11 14 17 8 12 5 9 19 0 1 7 2 13 16 3  
10 6 15 4 11 14 7 12 17 18 19 5 1 0 2 9 13 16 3 8  
10 6 15 4 18 14 11 17 8 12 5 7 2 9 13 1 0 19 16 3  
10 6 15 4 18 14 11 17 8 12 5 9 19 2 13 16 0 1 7 3  
10 6 15 4 18 14 11 17 8 12 5 9 19 2 13 16 7 3 1 0  
10 6 15 4 18 11 14 17 8 12 5 9 19 7 1 0 2 13 16 3  
10 6 15 4 18 14 11 17 8 12 5 9 19 1 7 2 0 13 16 3  
10 6 15 4 18 14 11 17 8 12 5 9 19 0 1 7 13 2 16 3  
10 6 15 4 18 14 11 17 8 12 5 7 2 9 19 1 0 13 16 3  
10 6 15 4 14 11 8 17 12 9 19 5 18 13 0 1 7 2 16 3  
10 6 15 4 18 14 11 17 8 12 5 9 13 2 16 7 0 1 3 19  
10 6 15 4 18 14 8 17 11 12 5 9 19 2 7 1 0 13 16 3  
10 6 15 4 18 14 11 17 8 12 5 9 19 2 13 16 0 1 7 3  
4 10 18 15 6 14 11 17 8 12 5 9 19 7 2 0 1 13 16 3  
10 6 15 4 18 11 14 17 8 12 5 9 19 0 1 7 2 13 16 3  
10 6 15 4 18 11 14 17 8 12 5 9 19 7 1 0 2 13 16 3  
10 6 15 4 18 11 14 17 8 12 5 9 19 0 1 7 2 13 16 3  
10 6 15 4 11 14 5 7 2 12 17 1 0 9 18 19 13 16 3 8  
10 6 15 4 18 14 11 17 8 12 5 9 19 2 13 16 7 3 1 0  
10 6 15 4 18 14 11 17 8 12 5 9 19 2 13 16 0 3 1 7  
10 6 15 4 18 14 11 17 8 12 5 9 19 2 13 16 0 1 7 3  
10 6 15 4 18 14 11 17 8 12 5 9 19 2 13 16 7 3 1 0  
10 6 15 4 18 14 11 17 8 12 5 9 19 2 13 16 7 0 1 3  
10 6 15 4 14 11 5 7 18 12 17 1 0 2 9 19 13 16 3 8  
10 6 15 4 18 14 11 17 12 8 5 9 19 7 2 1 0 13 16 3  
